96
20
0 20 27 30 32 35 36 39 40 41 44 46 48 49 54 56 57 59 60 61 62 63 64 66 67 68 70 71 72 73 74 76 79 81 83 86 87 88 89 90 92 93 94
1 25 27 30 32 33 34 37 39 40 41 46 48 50 51 53 54 56 57 58 59 60 61 62 65 66 67 68 70 72 74 79 80 81 84 86 87 88 89 93 94
2 20 21 25 27 29 30 31 32 33 34 35 40 41 43 44 46 50 51 53 56 57 62 63 66 67 70 72 74 75 76 77 78 79 83 86 89 90 92 94
3 20 24 25 26 30 31 32 33 36 37 39 40 43 44 46 48 53 54 57 59 62 63 65 66 69 70 72 74 77 78 79 80 81 85 86 87 88 89 90 92 93 95
4 21 22 24 25 27 28 30 31 32 33 34 35 36 37 39 40 41 43 44 46 47 48 50 51 53 54 58 59 60 61 63 65 67 71 72 74 75 76 77 79 80 82 86 87 90 94 95
5 20 21 24 25 27 33 34 36 37 40 43 45 47 48 53 54 55 56 57 58 59 60 61 63 66 67 70 72 74 76 77 79 80 83 87 92 93 94 95
6 20 24 25 27 28 30 32 34 35 37 40 41 43 44 46 47 48 55 56 57 58 59 60 65 68 70 72 73 74 75 76 77 79 84 92 94 95
7 22 24 25 30 31 35 37 39 40 41 46 47 48 56 58 59 60 62 63 66 67 69 70 73 74 76 79 80 81 88 89 90 92 93 94 95
8 23 31 32 33 34 39 43 44 46 52 54 55 56 59 60 66 67 68 73 76 77 79 80 83 84 86 87 89 90 92 93 94 95
9 20 24 25 31 33 34 35 36 41 43 46 48 51 54 55 57 59 60 63 65 66 68 72 76 77 80 83 84 86 87 89 92 93 95
10 32 33 38 39 40 41 43 44 48 49 50 51 53 56 57 58 61 63 64 67 70 72 76 79 80 81 82 84 91 95
11 22 24 28 30 32 34 36 39 40 43 44 47 50 53 54 56 59 67 74 76 79 80 81 83 86 87 89 92 93
12 20 21 22 23 24 25 27 30 31 37 39 42 46 47 48 54 57 58 61 62 66 68 70 77 80 82 83 87 88 89 90 92 93
13 21 28 35 40 44 46 48 52 55 59 62 64 65 66 72 75 79 87 89 90 92 93
14 22 23 24 25 37 39 41 42 51 54 56 58 59 61 68 72 74 77 86 88 89 90
15 20 21 30 36 39 42 44 45 53 54 55 65 69 72 80 83 93
16 20 21 28 31 33 38 52 53 64 68 69 78 81 83 86
17 31 32 43 46 52 57 59 60 64 80 88 90
18 43 51 80
19 32 37 94
